Solving original (integer) problem with strategy gdp.hull...
--- Job model.gms Start 02/16/26 02:17:59 52.2.0 d8e408be LEX-LEG x86 64bit/Linux
--- Applying:
    /package/gams/52.2/gmsprmun.txt
--- GAMS Parameters defined
    Input /local/scratch/a/sgusev/repos/k_means/data/gams_scip_gdp.hull/no_mode/2026-02-16_02-17-58/original/model.gms
    Output /local/scratch/a/sgusev/repos/k_means/data/gams_scip_gdp.hull/no_mode/2026-02-16_02-17-58/original/output.lst
    ScrDir /local/scratch/a/sgusev/repos/k_means/data/gams_scip_gdp.hull/no_mode/2026-02-16_02-17-58/original/225a/
    SysDir /package/gams/52.2/
    CurDir /local/scratch/a/sgusev/repos/k_means/data/gams_scip_gdp.hull/no_mode/2026-02-16_02-17-58/original/
    LogOption 3
    AppendLog 1
Licensee: David Bernal / SECQUOIA Research Group         G251008+0003Ac-GEN
          Purdue University, Davidson School of Chemical EngineeringDCE4838
          225a/gamslice.dat
          5a82958a-fbca-4a23
          node:66820903 mem:995 cores:48 ipport:53471 v:2                  
          Evaluation license: Not for commercial or production use
          The time-limited license stops working on : Jun 30, 2027
System information: 48 physical cores and 995 Gb physical memory detected
GAMS 52.2.0   Copyright (C) 1987-2025 GAMS Development. All rights reserved
--- Starting compilation
--- model.gms(3565) 2 Mb
--- $echo File /local/scratch/a/sgusev/repos/k_means/data/gams_scip_gdp.hull/no_mode/2026-02-16_02-17-58/original/scip.opt
--- model.gms(5225) 2 Mb
--- Starting execution: elapsed 0:00:00.019
--- model.gms(3575) 3 Mb
--- Generating MINLP model GAMS_MODEL
--- model.gms(3579) 6 Mb
---   1,084 rows  509 columns  2,623 non-zeroes
---   2,352 nl-code  288 nl-non-zeroes
---   48 discrete-columns
--- Range statistics (absolute non-zero finite values)
--- RHS       [min, max] : [ 5.540E-05, 1.000E+00] - Zero values observed as well
--- Bound     [min, max] : [ 1.000E+00, 9.600E+01] - Zero values observed as well
--- Matrix    [min, max] : [ 4.287E-02, 9.600E+01]
--- model.gms(3579) 4 Mb
--- Executing SCIP (Solvelink=5): elapsed 0:00:00.025

SCIP             52.2.0 d8e408be Dec 8, 2025           LEG x86 64bit/Linux    
SCIP version 9.2.4 (a94f778ac8)
Copyright (c) 2002-2025 Zuse Institute Berlin (ZIB)

External libraries: 
  CPLEX 22.1.2.0       Linear Programming Solver developed by IBM (www.cplex.com)
  CppAD 20180000.0     Algorithmic Differentiation of C++ algorithms developed by B. Bell (github.com/coin-or/CppAD)
  PaPILO 2.4.4         parallel presolve for integer and linear optimization (github.com/scipopt/papilo) (built with TBB) [GitHash: 7c826d50]
  Nauty 2.8.9          Computing Graph Automorphism Groups by Brendan D. McKay (users.cecs.anu.edu.au/~bdm/nauty)
  sassy 1.1            Symmetry preprocessor by Markus Anders (github.com/markusa4/sassy)
  Ipopt 3.14.19        Interior Point Optimizer developed by A. Waechter et.al. (github.com/coin-or/Ipopt)

reading option file /local/scratch/a/sgusev/repos/k_means/data/gams_scip_gdp.hull/no_mode/2026-02-16_02-17-58/original/scip.opt
non-default parameter settings:
limits/time = 300
limits/gap = 1e-06
limits/absgap = 1e-10
lp/threads = 1
misc/printreason = FALSE
numerics/dualfeastol = 1e-06
parallel/maxnthreads = 1
nlpi/ipopt/linear_solver = "ma27"
nlpi/ipopt/linear_system_scaling = "mc19"

original problem has 508 variables (48 bin, 0 int, 460 cont) and 1083 constraints

all 1 solutions given by solution candidate storage are infeasible

presolving:
(round 1, fast)       12 del vars, 0 del conss, 0 add conss, 0 chg bounds, 0 chg sides, 0 chg coeffs, 0 upgd conss, 0 impls, 12 clqs
(round 2, fast)       12 del vars, 0 del conss, 0 add conss, 0 chg bounds, 12 chg sides, 0 chg coeffs, 0 upgd conss, 0 impls, 12 clqs
(round 3, exhaustive) 12 del vars, 0 del conss, 0 add conss, 0 chg bounds, 12 chg sides, 0 chg coeffs, 828 upgd conss, 0 impls, 12 clqs
   (0.1s) probing cycle finished: starting next cycle
   (0.1s) symmetry computation started: requiring (bin +, int +, cont +), (fixed: bin -, int -, cont -)
   (0.1s) no symmetry present (symcode time: 0.00)
presolving (4 rounds: 4 fast, 2 medium, 2 exhaustive):
 12 deleted vars, 0 deleted constraints, 0 added constraints, 0 tightened bounds, 0 added holes, 12 changed sides, 0 changed coefficients
 2112 implications, 12 cliques
presolved problem has 496 variables (48 bin, 0 int, 0 impl, 448 cont) and 1083 constraints
    816 constraints of type <varbound>
     12 constraints of type <setppc>
    207 constraints of type <linear>
     48 constraints of type <nonlinear>
Presolving Time: 0.07

 time | node  | left  |LP iter|LP it/n|mem/heur|mdpt |vars |cons |rows |cuts |sepa|confs|strbr|  dualbound   | primalbound  |  gap   | compl. 
  0.2s|     1 |     0 |   974 |     - |    21M |   0 |1744 |1083 |2765 |   0 |  0 |   0 |   0 | 0.000000e+00 |      --      |    Inf | unknown
o 0.2s|     1 |     0 |   999 |     - |feaspump|   0 |1744 |1083 |2765 |   0 |  0 |   0 |   0 | 0.000000e+00 | 1.105411e+01 |    Inf | unknown
  0.2s|     1 |     0 |  1098 |     - |    22M |   0 |1744 |1083 |2815 |  50 |  1 |   0 |   0 | 0.000000e+00 | 1.105411e+01 |    Inf | unknown
  0.2s|     1 |     0 |  1098 |     - |    22M |   0 |1744 |1083 |2803 |  50 |  1 |   0 |   0 | 0.000000e+00 | 1.105411e+01 |    Inf | unknown
  0.2s|     1 |     0 |  1226 |     - |    22M |   0 |1744 |1083 |2846 |  93 |  2 |   0 |   0 | 0.000000e+00 | 1.105411e+01 |    Inf | unknown
  0.3s|     1 |     0 |  1323 |     - |    23M |   0 |1744 |1083 |2898 | 145 |  3 |   0 |   0 | 0.000000e+00 | 1.105411e+01 |    Inf | unknown
  0.3s|     1 |     0 |  1364 |     - |    24M |   0 |1744 |1083 |2942 | 189 |  4 |   0 |   0 | 0.000000e+00 | 1.105411e+01 |    Inf | unknown
  0.3s|     1 |     0 |  1429 |     - |    24M |   0 |1744 |1083 |2982 | 229 |  5 |   0 |   0 | 0.000000e+00 | 1.105411e+01 |    Inf | unknown
  0.3s|     1 |     0 |  1522 |     - |    24M |   0 |1744 |1083 |3028 | 275 |  6 |   0 |   0 | 0.000000e+00 | 1.105411e+01 |    Inf | unknown
  0.3s|     1 |     0 |  1579 |     - |    24M |   0 |1744 |1083 |3074 | 321 |  7 |   0 |   0 | 0.000000e+00 | 1.105411e+01 |    Inf | unknown
  0.3s|     1 |     0 |  1628 |     - |    25M |   0 |1744 |1083 |3117 | 364 |  8 |   0 |   0 | 0.000000e+00 | 1.105411e+01 |    Inf | unknown
  0.3s|     1 |     0 |  1705 |     - |    25M |   0 |1744 |1083 |3163 | 410 |  9 |   0 |   0 | 0.000000e+00 | 1.105411e+01 |    Inf | unknown
  0.3s|     1 |     0 |  1740 |     - |    25M |   0 |1744 |1083 |3211 | 458 | 10 |   0 |   0 | 0.000000e+00 | 1.105411e+01 |    Inf | unknown
  0.3s|     1 |     0 |  1762 |     - |    25M |   0 |1744 |1083 |3249 | 496 | 11 |   0 |   0 | 0.000000e+00 | 1.105411e+01 |    Inf | unknown
  0.3s|     1 |     0 |  1783 |     - |    25M |   0 |1744 |1083 |3285 | 532 | 12 |   0 |   0 | 0.000000e+00 | 1.105411e+01 |    Inf | unknown
 time | node  | left  |LP iter|LP it/n|mem/heur|mdpt |vars |cons |rows |cuts |sepa|confs|strbr|  dualbound   | primalbound  |  gap   | compl. 
  0.3s|     1 |     0 |  1798 |     - |    25M |   0 |1744 |1083 |1901 | 562 | 13 |   0 |   0 | 0.000000e+00 | 1.105411e+01 |    Inf | unknown
  0.3s|     1 |     0 |  1812 |     - |    25M |   0 |1744 |1083 |1930 | 591 | 14 |   0 |   0 | 0.000000e+00 | 1.105411e+01 |    Inf | unknown
  0.3s|     1 |     0 |  1820 |     - |    25M |   0 |1744 |1083 |1950 | 611 | 15 |   0 |   0 | 0.000000e+00 | 1.105411e+01 |    Inf | unknown
  0.3s|     1 |     0 |  1830 |     - |    25M |   0 |1744 |1083 |1966 | 627 | 16 |   0 |   0 | 0.000000e+00 | 1.105411e+01 |    Inf | unknown
  0.3s|     1 |     0 |  1834 |     - |    25M |   0 |1744 |1083 |1978 | 639 | 17 |   0 |   0 | 0.000000e+00 | 1.105411e+01 |    Inf | unknown
  0.3s|     1 |     0 |  1837 |     - |    25M |   0 |1744 |1083 |1986 | 647 | 18 |   0 |   0 | 0.000000e+00 | 1.105411e+01 |    Inf | unknown
  0.3s|     1 |     0 |  1838 |     - |    25M |   0 |1744 |1083 |1732 | 648 | 19 |   0 |   0 | 0.000000e+00 | 1.105411e+01 |    Inf | unknown
  1.2s|     1 |     0 | 11996 |     - |    25M |   0 |1744 |1071 |1732 | 648 | 19 |   0 |   0 | 0.000000e+00 | 1.105411e+01 |    Inf | unknown
  2.0s|     1 |     0 | 12008 |     - |    28M |   0 |1744 |1071 |1706 | 668 | 20 |   0 |   0 | 0.000000e+00 | 1.105411e+01 |    Inf | unknown
  2.0s|     1 |     0 | 12020 |     - |    28M |   0 |1744 |1071 |1726 | 688 | 21 |   0 |   0 | 0.000000e+00 | 1.105411e+01 |    Inf | unknown
  2.0s|     1 |     2 | 12020 |     - |    28M |   0 |1744 |1071 |1726 | 688 | 22 |   0 |   0 | 0.000000e+00 | 1.105411e+01 |    Inf | unknown
d 3.1s|    23 |    24 | 15842 | 652.1 |nlpdivin|   8 |1744 |1071 |2110 |   0 | 11 |   0 |   0 | 0.000000e+00 | 8.569534e+00 |    Inf | unknown
d 3.9s|    42 |    43 | 18796 | 422.0 |nlpdivin|  11 |1744 |1071 |2054 |   0 |  9 |   0 |   0 | 0.000000e+00 | 8.013301e+00 |    Inf | unknown
d 5.1s|    77 |    78 | 25079 | 310.3 |nlpdivin|  15 |1744 |1071 |1976 |   0 | 14 |   0 |   4 | 0.000000e+00 | 5.150835e+00 |    Inf | unknown
  5.8s|   100 |   101 | 29663 | 284.5 |    33M |  15 |1744 |1071 |1991 |  13k|  6 |   0 |   4 | 0.000000e+00 | 5.150835e+00 |    Inf | unknown
 time | node  | left  |LP iter|LP it/n|mem/heur|mdpt |vars |cons |rows |cuts |sepa|confs|strbr|  dualbound   | primalbound  |  gap   | compl. 
 10.0s|   200 |   197 | 51749 | 252.5 |    40M |  17 |1744 |1071 |1980 |  30k|  9 |   0 |   9 | 0.000000e+00 | 5.150835e+00 |    Inf | unknown
 14.3s|   300 |   295 | 71137 | 232.9 |    45M |  17 |1744 |1071 |1962 |  46k|  2 |   0 |  12 | 0.000000e+00 | 5.150835e+00 |    Inf | unknown
 18.2s|   400 |   389 | 93167 | 229.8 |    51M |  20 |1744 |1071 |2148 |  60k| 10 |   0 |  26 | 0.000000e+00 | 5.150835e+00 |    Inf | unknown
 22.8s|   500 |   469 |109234 | 215.9 |    54M |  29 |1744 |1071 |1966 |  70k|  3 |   0 |  31 | 0.000000e+00 | 5.150835e+00 |    Inf | unknown
 26.3s|   600 |   559 |128299 | 211.7 |    62M |  29 |1744 |1071 |2283 |  82k| 13 |   0 |  37 | 0.000000e+00 | 5.150835e+00 |    Inf | unknown
 29.8s|   700 |   645 |146025 | 206.8 |    65M |  29 |1744 |1071 |2025 |  94k|  2 |   0 |  39 | 0.000000e+00 | 5.150835e+00 |    Inf | unknown
 33.1s|   800 |   727 |162461 | 201.5 |    69M |  29 |1744 |1071 |1879 | 104k|  3 |   0 |  53 | 0.000000e+00 | 5.150835e+00 |    Inf | unknown
 36.8s|   900 |   815 |181535 | 200.3 |    74M |  29 |1744 |1071 |2121 | 118k|  2 |   0 |  56 | 0.000000e+00 | 5.150835e+00 |    Inf | unknown
 40.6s|  1000 |   905 |203679 | 202.4 |    78M |  29 |1744 |1071 |2268 | 130k| 11 |   0 |  57 | 0.000000e+00 | 5.150835e+00 |    Inf | unknown
 43.9s|  1100 |   989 |222111 | 200.7 |    82M |  29 |1744 |1071 |2132 | 142k| 11 |   0 |  60 | 0.000000e+00 | 5.150835e+00 |    Inf | unknown
 47.3s|  1200 |  1069 |238487 | 197.7 |    84M |  29 |1744 |1071 |1991 | 154k|  2 |   0 |  64 | 0.000000e+00 | 5.150835e+00 |    Inf | unknown
 50.6s|  1300 |  1153 |254108 | 194.5 |    90M |  29 |1744 |1071 |1858 | 165k|  2 |   0 |  73 | 0.000000e+00 | 5.150835e+00 |    Inf |   1.46%
 54.1s|  1400 |  1251 |275055 | 195.5 |    94M |  29 |1744 |1071 |2006 | 178k|  3 |   0 |  78 | 2.558397e-05 | 5.150835e+00 |  Large |   1.46%
 57.7s|  1500 |  1337 |294597 | 195.5 |    97M |  29 |1744 |1071 |2105 | 191k| 10 |   0 |  85 | 5.620461e-04 | 5.150835e+00 |  Large |   1.47%
 61.0s|  1600 |  1425 |313227 | 195.0 |   102M |  29 |1744 |1071 |1888 | 204k| 10 |   0 |  93 | 5.620461e-04 | 5.150835e+00 |  Large |   1.61%
 time | node  | left  |LP iter|LP it/n|mem/heur|mdpt |vars |cons |rows |cuts |sepa|confs|strbr|  dualbound   | primalbound  |  gap   | compl. 
 65.0s|  1700 |  1519 |333013 | 195.1 |   106M |  29 |1744 |1071 |2117 | 218k| 12 |   0 |  93 | 5.620461e-04 | 5.150835e+00 |  Large |   1.61%
 68.1s|  1800 |  1615 |348426 | 192.8 |   110M |  29 |1744 |1071 |1900 | 228k|  3 |   0 | 100 | 5.620461e-04 | 5.150835e+00 |  Large |   1.61%
 72.0s|  1900 |  1709 |371647 | 194.9 |   115M |  29 |1744 |1071 |2282 | 242k| 13 |   0 | 110 | 5.620461e-04 | 5.150835e+00 |  Large |   1.61%
 75.4s|  2000 |  1791 |389090 | 193.9 |   119M |  29 |1744 |1071 |1943 | 252k|  2 |   0 | 119 | 1.610537e-03 | 5.150835e+00 |  Large |   2.04%
 78.7s|  2100 |  1865 |406429 | 192.9 |   122M |  29 |1744 |1071 |2044 | 264k|  2 |   0 | 133 | 5.238091e-03 | 5.150835e+00 |  Large |   2.06%
 81.9s|  2200 |  1937 |422743 | 191.6 |   125M |  29 |1744 |1071 |1956 | 276k|  2 |   1 | 146 | 5.238091e-03 | 5.150835e+00 |  Large |   2.07%
 85.5s|  2300 |  2013 |440776 | 191.1 |   128M |  29 |1744 |1071 |2190 | 287k|  4 |   1 | 168 | 6.289710e-03 | 5.150835e+00 |  Large |   2.07%
 88.5s|  2400 |  2085 |457989 | 190.3 |   132M |  29 |1744 |1071 |1877 | 298k|  6 |   1 | 180 | 2.400871e-02 | 5.150835e+00 |  Large |   2.58%
 91.9s|  2500 |  2167 |474429 | 189.2 |   135M |  29 |1744 |1071 |1994 | 310k|  3 |   1 | 188 | 4.154366e-02 | 5.150835e+00 |  Large |   2.69%
 95.6s|  2600 |  2263 |493523 | 189.3 |   139M |  29 |1744 |1071 |2186 | 324k| 13 |   1 | 201 | 4.350442e-02 | 5.150835e+00 |  Large |   3.00%
 99.1s|  2700 |  2355 |510359 | 188.5 |   144M |  29 |1744 |1071 |1799 | 336k|  3 |   1 | 210 | 5.469722e-02 | 5.150835e+00 |9317.00%|   3.12%
  102s|  2800 |  2441 |526067 | 187.4 |   148M |  29 |1744 |1071 |2127 | 346k| 10 |   1 | 227 | 7.948277e-02 | 5.150835e+00 |6380.44%|   3.40%
  105s|  2900 |  2525 |541145 | 186.2 |   155M |  31 |1744 |1071 |2372 | 357k| 10 |   2 | 247 | 8.129645e-02 | 5.150835e+00 |6235.87%|   4.23%
  108s|  3000 |  2569 |557863 | 185.5 |   157M |  31 |1744 |1071 |2071 | 366k|  0 |   3 | 267 | 1.049154e-01 | 5.150835e+00 |4809.51%|   4.29%
  111s|  3100 |  2647 |571372 | 183.9 |   160M |  31 |1744 |1071 |1982 | 376k| 12 |   3 | 270 | 1.252929e-01 | 5.150835e+00 |4011.03%|   4.39%
 time | node  | left  |LP iter|LP it/n|mem/heur|mdpt |vars |cons |rows |cuts |sepa|confs|strbr|  dualbound   | primalbound  |  gap   | compl. 
  114s|  3200 |  2729 |584727 | 182.3 |   165M |  31 |1744 |1071 |1871 | 387k|  4 |   3 | 275 | 1.252929e-01 | 5.150835e+00 |4011.03%|   4.42%
  117s|  3300 |  2809 |599080 | 181.1 |   168M |  31 |1744 |1071 |1981 | 397k|  8 |   3 | 279 | 1.252930e-01 | 5.150835e+00 |4011.03%|   4.43%
  120s|  3400 |  2877 |611790 | 179.6 |   173M |  31 |1744 |1071 |1779 | 406k|  2 |   4 | 290 | 1.253244e-01 | 5.150835e+00 |4010.00%|   4.53%
  123s|  3500 |  2951 |629221 | 179.4 |   178M |  31 |1744 |1071 |2132 | 418k|  2 |   4 | 309 | 1.278258e-01 | 5.150835e+00 |3929.57%|   4.58%
  126s|  3600 |  3023 |645597 | 179.0 |   181M |  31 |1744 |1071 |1993 | 429k|  2 |   5 | 327 | 1.278263e-01 | 5.150835e+00 |3929.56%|   4.58%
  129s|  3700 |  3101 |663000 | 178.8 |   185M |  31 |1744 |1071 |2197 | 440k| 11 |   6 | 345 | 1.278267e-01 | 5.150835e+00 |3929.55%|   4.58%
  132s|  3800 |  3157 |676437 | 177.7 |   188M |  31 |1744 |1071 |2100 | 449k|  9 |   6 | 357 | 1.278267e-01 | 5.150835e+00 |3929.55%|   4.60%
  135s|  3900 |  3223 |689100 | 176.4 |   191M |  31 |1744 |1071 |2049 | 458k|  2 |   6 | 375 | 1.278267e-01 | 5.150835e+00 |3929.55%|   4.60%
  138s|  4000 |  3289 |702607 | 175.3 |   193M |  31 |1744 |1071 |2095 | 469k|  4 |   6 | 393 | 1.278269e-01 | 5.150835e+00 |3929.54%|   4.60%
  141s|  4100 |  3371 |715457 | 174.2 |   197M |  31 |1744 |1071 |2019 | 479k| 12 |   6 | 401 | 1.278269e-01 | 5.150835e+00 |3929.54%|   4.60%
  144s|  4200 |  3455 |732145 | 174.0 |   198M |  31 |1744 |1071 |2111 | 492k| 10 |   6 | 409 | 1.280520e-01 | 5.150835e+00 |3922.46%|   4.60%
  147s|  4300 |  3525 |745605 | 173.1 |   201M |  31 |1744 |1071 |2086 | 501k|  8 |   6 | 421 | 1.280520e-01 | 5.150835e+00 |3922.46%|   4.61%
  150s|  4400 |  3603 |760882 | 172.6 |   204M |  31 |1744 |1071 |2015 | 513k|  2 |   6 | 434 | 1.286640e-01 | 5.150835e+00 |3903.32%|   4.61%
  153s|  4500 |  3663 |778222 | 172.6 |   206M |  31 |1744 |1071 |2218 | 523k|  9 |   6 | 464 | 1.455708e-01 | 5.150835e+00 |3438.37%|   4.62%
  156s|  4600 |  3723 |791992 | 171.9 |   210M |  31 |1744 |1071 |2094 | 532k| 12 |   6 | 497 | 1.455708e-01 | 5.150835e+00 |3438.37%|   4.62%
 time | node  | left  |LP iter|LP it/n|mem/heur|mdpt |vars |cons |rows |cuts |sepa|confs|strbr|  dualbound   | primalbound  |  gap   | compl. 
  160s|  4700 |  3785 |806536 | 171.3 |   213M |  31 |1744 |1071 |2281 | 543k|  3 |   6 | 510 | 1.458385e-01 | 5.150835e+00 |3431.88%|   4.62%
  162s|  4800 |  3835 |818934 | 170.3 |   216M |  31 |1744 |1071 |1983 | 551k|  2 |   6 | 527 | 1.517212e-01 | 5.150835e+00 |3294.93%|   4.63%
  165s|  4900 |  3895 |831272 | 169.4 |   217M |  31 |1744 |1071 |1943 | 558k|  1 |   6 | 538 | 1.517627e-01 | 5.150835e+00 |3294.01%|   4.66%
  168s|  5000 |  3961 |843686 | 168.5 |   220M |  32 |1744 |1071 |2066 | 567k|  8 |   6 | 556 | 2.029567e-01 | 5.150835e+00 |2437.90%|   4.71%
  170s|  5100 |  4013 |856179 | 167.6 |   222M |  32 |1744 |1071 |1987 | 574k|  2 |   6 | 572 | 2.115810e-01 | 5.150835e+00 |2334.45%|   4.87%
  173s|  5200 |  4077 |867134 | 166.5 |   224M |  32 |1744 |1071 |1933 | 582k| 12 |   6 | 586 | 2.124302e-01 | 5.150835e+00 |2324.72%|   5.03%
  176s|  5300 |  4129 |883477 | 166.4 |   228M |  32 |1744 |1071 |2057 | 590k|  2 |   6 | 614 | 2.139123e-01 | 5.150835e+00 |2307.92%|   5.16%
  179s|  5400 |  4185 |898434 | 166.1 |   231M |  32 |1744 |1071 |2197 | 600k|  7 |   6 | 649 | 2.139123e-01 | 5.150835e+00 |2307.92%|   5.34%
  181s|  5500 |  4239 |913082 | 165.8 |   233M |  32 |1744 |1071 |1928 | 609k|  2 |   6 | 674 | 2.139123e-01 | 5.150835e+00 |2307.92%|   5.35%
  184s|  5600 |  4297 |929670 | 165.8 |   238M |  32 |1744 |1071 |2181 | 618k| 10 |   6 | 679 | 2.170604e-01 | 5.150835e+00 |2273.00%|   5.35%
  187s|  5700 |  4359 |946415 | 165.8 |   242M |  32 |1744 |1071 |1883 | 628k|  2 |   6 | 703 | 2.175126e-01 | 5.150835e+00 |2268.06%|   5.56%
  190s|  5800 |  4413 |960426 | 165.4 |   244M |  32 |1744 |1071 |1905 | 636k|  2 |   6 | 731 | 2.175126e-01 | 5.150835e+00 |2268.06%|   5.57%
  192s|  5900 |  4467 |971846 | 164.5 |   247M |  32 |1744 |1071 |1967 | 644k| 13 |   6 | 739 | 2.579209e-01 | 5.150835e+00 |1897.06%|   5.61%
  195s|  6000 |  4535 |986662 | 164.2 |   248M |  32 |1744 |1071 |2072 | 654k|  2 |   6 | 744 | 2.644705e-01 | 5.150835e+00 |1847.60%|   5.61%
  198s|  6100 |  4619 |  1002k| 164.1 |   252M |  32 |1744 |1071 |2280 | 665k| 11 |   6 | 758 | 2.685347e-01 | 5.150835e+00 |1818.13%|   5.65%
 time | node  | left  |LP iter|LP it/n|mem/heur|mdpt |vars |cons |rows |cuts |sepa|confs|strbr|  dualbound   | primalbound  |  gap   | compl. 
  201s|  6200 |  4681 |  1017k| 163.9 |   253M |  32 |1744 |1071 |2096 | 675k|  2 |   6 | 766 | 2.685347e-01 | 5.150835e+00 |1818.13%|   5.65%
  204s|  6300 |  4743 |  1034k| 164.0 |   255M |  32 |1744 |1071 |2087 | 684k|  9 |   7 | 804 | 2.685347e-01 | 5.150835e+00 |1818.13%|   5.66%
  207s|  6400 |  4795 |  1048k| 163.6 |   258M |  32 |1744 |1071 |2096 | 693k|  3 |   7 | 807 | 2.685347e-01 | 5.150835e+00 |1818.13%|   5.66%
  210s|  6500 |  4853 |  1062k| 163.2 |   260M |  32 |1744 |1071 |1999 | 702k|  2 |   7 | 816 | 2.685347e-01 | 5.150835e+00 |1818.13%|   5.66%
  213s|  6600 |  4925 |  1077k| 163.1 |   265M |  32 |1744 |1071 |2132 | 712k| 10 |   7 | 823 | 2.685364e-01 | 5.150835e+00 |1818.11%|   5.66%
  215s|  6700 |  4971 |  1092k| 162.8 |   268M |  32 |1744 |1071 |2198 | 720k|  5 |   7 | 824 | 2.736662e-01 | 5.150835e+00 |1782.16%|   5.70%
  218s|  6800 |  5039 |  1105k| 162.4 |   270M |  32 |1744 |1071 |1983 | 728k|  2 |   7 | 830 | 3.199826e-01 | 5.150835e+00 |1509.72%|   5.72%
  220s|  6900 |  5081 |  1118k| 161.9 |   271M |  32 |1744 |1071 |1782 | 737k|  4 |   7 | 835 | 3.202747e-01 | 5.150835e+00 |1508.26%|   5.74%
  223s|  7000 |  5137 |  1133k| 161.7 |   276M |  32 |1744 |1071 |1936 | 746k|  3 |   7 | 847 | 3.202747e-01 | 5.150835e+00 |1508.26%|   5.75%
  225s|  7100 |  5201 |  1147k| 161.4 |   280M |  32 |1744 |1071 |1893 | 754k|  3 |   7 | 848 | 3.222615e-01 | 5.150835e+00 |1498.34%|   5.86%
  228s|  7200 |  5243 |  1158k| 160.7 |   282M |  32 |1744 |1071 |2004 | 762k|  3 |   7 | 855 | 3.272644e-01 | 5.150835e+00 |1473.91%|   5.87%
  231s|  7300 |  5293 |  1173k| 160.5 |   284M |  32 |1744 |1071 |2192 | 771k|  2 |   7 | 866 | 3.280259e-01 | 5.150835e+00 |1470.25%|   5.87%
  233s|  7400 |  5365 |  1186k| 160.1 |   285M |  33 |1744 |1071 |2147 | 781k| 13 |   7 | 869 | 3.881559e-01 | 5.150835e+00 |1227.00%|   5.93%
  236s|  7500 |  5433 |  1200k| 159.8 |   287M |  33 |1744 |1071 |2125 | 790k|  8 |   7 | 874 | 3.881940e-01 | 5.150835e+00 |1226.87%|   5.94%
  239s|  7600 |  5515 |  1216k| 159.9 |   289M |  33 |1744 |1071 |2095 | 800k| 12 |   7 | 874 | 3.893114e-01 | 5.150835e+00 |1223.06%|   6.00%
 time | node  | left  |LP iter|LP it/n|mem/heur|mdpt |vars |cons |rows |cuts |sepa|confs|strbr|  dualbound   | primalbound  |  gap   | compl. 
  242s|  7700 |  5563 |  1231k| 159.8 |   292M |  33 |1744 |1071 |2333 | 809k| 11 |   7 | 882 | 3.923032e-01 | 5.150835e+00 |1212.97%|   6.04%
  244s|  7800 |  5607 |  1244k| 159.4 |   294M |  33 |1744 |1071 |2131 | 816k|  4 |   7 | 886 | 3.923145e-01 | 5.150835e+00 |1212.94%|   6.04%
  247s|  7900 |  5661 |  1260k| 159.4 |   296M |  33 |1744 |1071 |2048 | 825k|  4 |   7 | 896 | 3.923145e-01 | 5.150835e+00 |1212.94%|   6.04%
  249s|  8000 |  5737 |  1280k| 159.9 |   299M |  33 |1744 |1071 |2100 | 836k|  4 |   7 | 906 | 4.051048e-01 | 5.150835e+00 |1171.48%|   6.11%
  252s|  8100 |  5809 |  1294k| 159.6 |   305M |  33 |1744 |1071 |2223 | 845k|  3 |   7 | 909 | 4.051049e-01 | 5.150835e+00 |1171.48%|   6.11%
  255s|  8200 |  5891 |  1308k| 159.5 |   307M |  33 |1744 |1071 |2173 | 856k|  9 |   8 | 915 | 4.051056e-01 | 5.150835e+00 |1171.48%|   6.11%
  258s|  8300 |  5945 |  1323k| 159.3 |   309M |  33 |1744 |1071 |2417 | 866k| 11 |   8 | 918 | 4.051056e-01 | 5.150835e+00 |1171.48%|   6.12%
  260s|  8400 |  6015 |  1345k| 160.0 |   316M |  33 |1744 |1071 |2230 | 878k| 10 |   8 | 923 | 4.051056e-01 | 5.150835e+00 |1171.48%|   6.12%
  263s|  8500 |  6073 |  1362k| 160.1 |   319M |  33 |1744 |1071 |2116 | 887k|  2 |   8 | 927 | 4.051056e-01 | 5.150835e+00 |1171.48%|   6.12%
  266s|  8600 |  6131 |  1379k| 160.2 |   321M |  34 |1744 |1071 |2184 | 898k|  9 |   8 | 930 | 4.052417e-01 | 5.150835e+00 |1171.05%|   6.12%
  269s|  8700 |  6211 |  1398k| 160.6 |   323M |  34 |1744 |1071 |2211 | 909k|  5 |   8 | 930 | 4.052417e-01 | 5.150835e+00 |1171.05%|   6.13%
  271s|  8800 |  6289 |  1414k| 160.6 |   325M |  34 |1744 |1071 |2407 | 919k|  9 |   8 | 932 | 4.052417e-01 | 5.150835e+00 |1171.05%|   6.13%
  273s|  8900 |  6349 |  1427k| 160.3 |   326M |  34 |1744 |1071 |2100 | 928k|  7 |   9 | 933 | 4.059431e-01 | 5.150835e+00 |1168.86%|   6.14%
  276s|  9000 |  6421 |  1444k| 160.4 |   329M |  36 |1744 |1071 |1945 | 939k|  2 |   9 | 938 | 4.123450e-01 | 5.150835e+00 |1149.16%|   6.15%
  279s|  9100 |  6483 |  1457k| 160.0 |   332M |  36 |1744 |1071 |1885 | 948k|  9 |  10 | 942 | 4.203492e-01 | 5.150835e+00 |1125.37%|   6.32%
 time | node  | left  |LP iter|LP it/n|mem/heur|mdpt |vars |cons |rows |cuts |sepa|confs|strbr|  dualbound   | primalbound  |  gap   | compl. 
  281s|  9200 |  6533 |  1469k| 159.6 |   334M |  36 |1744 |1071 |2205 | 956k|  2 |  10 | 949 | 4.299000e-01 | 5.150835e+00 |1098.15%|   6.33%
  283s|  9300 |  6571 |  1481k| 159.1 |   336M |  39 |1744 |1071 |2127 | 962k|  7 |  10 | 952 | 4.299000e-01 | 5.150835e+00 |1098.15%|   6.34%
  286s|  9400 |  6637 |  1493k| 158.7 |   339M |  39 |1744 |1071 |1954 | 970k|  2 |  10 | 966 | 4.319094e-01 | 5.150835e+00 |1092.57%|   6.34%
  288s|  9500 |  6703 |  1505k| 158.3 |   340M |  39 |1744 |1071 |1848 | 976k|  4 |  10 | 973 | 4.326656e-01 | 5.150835e+00 |1090.49%|   6.73%
  290s|  9600 |  6743 |  1517k| 157.9 |   342M |  39 |1744 |1071 |2051 | 983k|  3 |  10 | 976 | 4.326661e-01 | 5.150835e+00 |1090.49%|   6.80%
  293s|  9700 |  6795 |  1531k| 157.7 |   344M |  39 |1744 |1071 |2059 | 992k|  2 |  10 | 977 | 4.507494e-01 | 5.150835e+00 |1042.73%|   6.84%
  295s|  9800 |  6837 |  1544k| 157.5 |   345M |  39 |1744 |1071 |2302 |1000k|  9 |  10 | 983 | 4.513621e-01 | 5.150835e+00 |1041.18%|   6.84%
  298s|  9900 |  6911 |  1557k| 157.1 |   350M |  39 |1744 |1071 |2009 |1009k|  7 |  10 | 984 | 4.513621e-01 | 5.150835e+00 |1041.18%|   6.85%

SCIP Status        : solving was interrupted [time limit reached]
Solving Time (sec) : 300.00
Solving Nodes      : 9985
Primal Bound       : +5.15083516741630e+00 (10 solutions)
Dual Bound         : +4.51362077115242e-01
Gap                : 1041.18 %


--- Reading solution for model GAMS_MODEL
***
*** Solver did not provide marginals for model GAMS_MODEL
***
--- Executing after solve: elapsed 0:05:00.311
--- model.gms(3582) 4 Mb
--- model.gms(5225) 6 Mb
--- Putfile results /local/scratch/a/sgusev/repos/k_means/data/gams_scip_gdp.hull/no_mode/2026-02-16_02-17-58/original/results.dat
--- Putfile statresults /local/scratch/a/sgusev/repos/k_means/data/gams_scip_gdp.hull/no_mode/2026-02-16_02-17-58/original/resultsstat.dat
*** Status: Normal completion
--- Job model.gms Stop 02/16/26 02:22:59 elapsed 0:05:00.314
Original problem solved. Time taken: 300.95516300201416 seconds
Original objective value: 5.150835167416305
